
Gurobi 10.0.2 (win64) logging started Fri Jun 21 03:40:34 2024

Set parameter LogFile to value "log/log_difficulty1_MNL_DESKTOP-S7OVCUR_9_18.txt"
Gurobi Optimizer version 10.0.2 build v10.0.2rc0 (win64)

CPU model: Intel(R) Core(TM) i7-10510U CPU @ 1.80GHz, instruction set [SSE2|AVX|AVX2]
Thread count: 4 physical cores, 8 logical processors, using up to 8 threads

Optimize a model with 2020 rows, 676 columns and 4612 nonzeros
Model fingerprint: 0xbac83c68
Variable types: 364 continuous, 312 integer (312 binary)
Coefficient statistics:
  Matrix range     [6e-04, 2e+03]
  Objective range  [1e+02, 6e+02]
  Bounds range     [1e+00, 1e+00]
  RHS range        [1e+00, 1e+00]
Found heuristic solution: objective -0.0000000
Presolve removed 224 rows and 104 columns
Presolve time: 0.02s
Presolved: 1796 rows, 572 columns, 4240 nonzeros
Found heuristic solution: objective 2264.7236604
Variable types: 308 continuous, 264 integer (264 binary)

Root relaxation: objective 1.567652e+04, 414 iterations, 0.00 seconds (0.00 work units)

    Nodes    |    Current Node    |     Objective Bounds      |     Work
 Expl Unexpl |  Obj  Depth IntInf | Incumbent    BestBd   Gap | It/Node Time

     0     0 15676.5239    0  155 2264.72366 15676.5239   592%     -    0s
H    0     0                    8551.2468465 15676.5239  83.3%     -    0s
H    0     0                    9688.2268457 15676.5239  61.8%     -    0s
H    0     0                    13804.876093 14936.1121  8.19%     -    0s
     0     0 14936.1121    0  172 13804.8761 14936.1121  8.19%     -    0s
     0     0 14912.1810    0  176 13804.8761 14912.1810  8.02%     -    0s
H    0     0                    13966.987691 14905.2372  6.72%     -    0s
     0     0 14905.2372    0  179 13966.9877 14905.2372  6.72%     -    0s
H    0     0                    14041.322568 14603.5819  4.00%     -    0s
     0     0 14603.5819    0  179 14041.3226 14603.5819  4.00%     -    0s
H    0     0                    14348.124771 14579.9317  1.62%     -    0s
     0     0 14579.9317    0  183 14348.1248 14579.9317  1.62%     -    0s
     0     0 14575.3408    0  188 14348.1248 14575.3408  1.58%     -    0s
     0     0 14572.7100    0  183 14348.1248 14572.7100  1.57%     -    0s
H    0     0                    14425.476653 14572.7100  1.02%     -    0s
H    0     0                    14478.844986 14572.7100  0.65%     -    0s
     0     0 14478.8450    0  163 14478.8450 14478.8450  0.00%     -    0s

Cutting planes:
  Gomory: 27
  Implied bound: 27
  MIR: 56
  Flow cover: 142
  RLT: 89
  Relax-and-lift: 13
  BQP: 8

Explored 1 nodes (1757 simplex iterations) in 0.30 seconds (0.12 work units)
Thread count was 8 (of 8 available processors)

Solution count 10: 14478.8 14425.5 14348.1 ... -0

Optimal solution found (tolerance 1.00e-04)
Best objective 1.447884498635e+04, best bound 1.447884498635e+04, gap 0.0000%
